; benchmark generated from python API
(set-info :status unknown)
(declare-fun strlen_72_64 () (_ BitVec 64))
(declare-fun args_0_8 () (_ BitVec 8))
(declare-fun strlen_74_64 () (_ BitVec 64))
(declare-fun args_1_8 () (_ BitVec 8))
(declare-fun strlen_77_64 () (_ BitVec 64))
(declare-fun args_2_8 () (_ BitVec 8))
(declare-fun args_3_8 () (_ BitVec 8))
(declare-fun strlen_80_64 () (_ BitVec 64))
(declare-fun strlen_84_64 () (_ BitVec 64))
(declare-fun args_4_8 () (_ BitVec 8))
(declare-fun args_5_16 () (_ BitVec 16))
(declare-fun strlen_88_64 () (_ BitVec 64))
(declare-fun args_6_16 () (_ BitVec 16))
(declare-fun strlen_92_64 () (_ BitVec 64))
(declare-fun args_7_16 () (_ BitVec 16))
(declare-fun strlen_96_64 () (_ BitVec 64))
(declare-fun args_8_16 () (_ BitVec 16))
(declare-fun strlen_100_64 () (_ BitVec 64))
(declare-fun strlen_104_64 () (_ BitVec 64))
(declare-fun args_9_16 () (_ BitVec 16))
(declare-fun strlen_109_64 () (_ BitVec 64))
(declare-fun args_10_32 () (_ BitVec 32))
(declare-fun sigaction_oldact_745_1216 () (_ BitVec 1216))
(declare-fun sigaction_oldact_1291_1216 () (_ BitVec 1216))
(declare-fun sigaction_oldact_2461_1216 () (_ BitVec 1216))
(assert
 (= (_ bv1 64) strlen_72_64))
(assert
 (let (($x69 (= (_ bv0 8) args_0_8)))
 (not $x69)))
(assert
 (= (_ bv1 64) strlen_74_64))
(assert
 (let (($x347 (= (_ bv0 8) args_1_8)))
 (not $x347)))
(assert
 (= (_ bv1 64) strlen_77_64))
(assert
 (let (($x369 (= (_ bv0 8) args_2_8)))
 (not $x369)))
(assert
 (let (($x415 (= (_ bv0 8) args_3_8)))
 (not $x415)))
(assert
 (= (_ bv1 64) strlen_80_64))
(assert
 (= (_ bv1 64) strlen_84_64))
(assert
 (let (($x222 (= (_ bv0 8) args_4_8)))
 (not $x222)))
(assert
 (let ((?x533 ((_ extract 7 0) args_5_16)))
 (let (($x532 (= (_ bv0 8) ?x533)))
 (not $x532))))
(assert
 (let ((?x333 ((_ extract 15 8) args_5_16)))
 (let (($x537 (= (_ bv0 8) ?x333)))
 (not $x537))))
(assert
 (= (_ bv2 64) strlen_88_64))
(assert
 (let ((?x698 ((_ extract 7 0) args_6_16)))
 (let (($x717 (= (_ bv0 8) ?x698)))
 (not $x717))))
(assert
 (let ((?x425 ((_ extract 15 8) args_6_16)))
 (let (($x701 (= (_ bv0 8) ?x425)))
 (not $x701))))
(assert
 (= (_ bv2 64) strlen_92_64))
(assert
 (let ((?x306 ((_ extract 7 0) args_7_16)))
 (let (($x734 (= (_ bv0 8) ?x306)))
 (not $x734))))
(assert
 (let ((?x498 ((_ extract 15 8) args_7_16)))
 (let (($x787 (= (_ bv0 8) ?x498)))
 (not $x787))))
(assert
 (= (_ bv2 64) strlen_96_64))
(assert
 (let ((?x389 ((_ extract 7 0) args_8_16)))
 (let (($x870 (= (_ bv0 8) ?x389)))
 (not $x870))))
(assert
 (let ((?x577 ((_ extract 15 8) args_8_16)))
 (let (($x827 (= (_ bv0 8) ?x577)))
 (not $x827))))
(assert
 (= (_ bv2 64) strlen_100_64))
(assert
 (let (($x721 (= (_ bv2 64) strlen_104_64)))
 (not $x721)))
(assert
 (let ((?x956 (bvadd (_ bv576460752303357846 64) strlen_104_64)))
 (let ((?x945 ((_ extract 7 0) args_9_16)))
 (let (($x959 (= (_ bv0 8) ?x945)))
 (let ((?x939 (ite $x959 (_ bv576460752303357847 64) (_ bv576460752303357848 64))))
 (let ((?x898 ((_ extract 15 8) args_9_16)))
 (let (($x649 (= (_ bv0 8) ?x898)))
 (let ((?x942 (ite $x649 (_ bv576460752303357846 64) ?x939)))
 (= ?x942 ?x956)))))))))
(assert
 (let ((?x1028 ((_ extract 7 0) args_10_32)))
 (let (($x1027 (= (_ bv0 8) ?x1028)))
 (let ((?x958 (ite $x1027 (_ bv576460752303357852 64) (_ bv576460752303357853 64))))
 (let ((?x1024 ((_ extract 15 8) args_10_32)))
 (let (($x1018 (= (_ bv0 8) ?x1024)))
 (let ((?x1030 (ite $x1018 (_ bv576460752303357851 64) ?x958)))
 (let ((?x1022 ((_ extract 23 16) args_10_32)))
 (let (($x1023 (= (_ bv0 8) ?x1022)))
 (let ((?x1031 (ite $x1023 (_ bv576460752303357850 64) ?x1030)))
 (let ((?x737 ((_ extract 31 24) args_10_32)))
 (let (($x1026 (= (_ bv0 8) ?x737)))
 (let ((?x1032 (ite $x1026 (_ bv576460752303357849 64) ?x1031)))
 (let ((?x1033 (bvsub ?x1032 (_ bv576460752303357849 64))))
 (= ?x1033 strlen_109_64)))))))))))))))
(assert
 (let ((?x42446 ((_ extract 127 120) sigaction_oldact_745_1216)))
 (let ((?x42463 (bvand ?x42446 (_ bv4 8))))
 (= (_ bv0 8) ?x42463))))
(assert
 (let ((?x74936 ((_ extract 127 120) sigaction_oldact_1291_1216)))
 (let ((?x36566 (bvand ?x74936 (_ bv4 8))))
 (and (distinct (_ bv0 8) ?x36566) true))))
(assert
 (let ((?x106583 ((_ extract 127 120) sigaction_oldact_2461_1216)))
 (let ((?x106651 (bvand ?x106583 (_ bv4 8))))
 (= (_ bv0 8) ?x106651))))
(maximize sigaction_oldact_1291_1216)
(maximize strlen_74_64)
(maximize args_0_8)
(minimize strlen_109_64)
(minimize args_8_16)
(minimize strlen_84_64)
(minimize sigaction_oldact_2461_1216)
(minimize args_1_8)
(minimize args_5_16)
(minimize strlen_88_64)
(maximize strlen_72_64)
(minimize strlen_96_64)
(maximize args_4_8)
(minimize args_4_8)
(maximize args_3_8)
(minimize strlen_72_64)
(maximize strlen_77_64)
(maximize strlen_84_64)
(minimize strlen_80_64)
(minimize args_9_16)
(maximize strlen_92_64)
(maximize strlen_80_64)
(minimize args_2_8)
(maximize strlen_96_64)
(maximize strlen_88_64)
(minimize args_6_16)
(maximize sigaction_oldact_745_1216)
(minimize args_0_8)
(minimize strlen_100_64)
(minimize args_10_32)
(check-sat)
(get-objectives)
